3 
4  41 55 
5  13 35 51 
6  05 20 35 50 
7  05 20 35 50 
8  05 20 35 50 
9  05 20 35 50 
10  05 20 35 50 
11  05 20 35 50 
12  05 20 35 50 
13  06 21 36 51 
14  06 21 36 51 
15  06 21 36 51 
16  06 21 36 51 
17  06 21 36 51 
18  06 21 36 51 
19  05 20 35 50 
20  05 20 35 50 
21  05 20 35 50 
22  05 20 35 
23  00 22 
0 
